HUN,8,6,789
1,5,0,6,2,29,5,15,4,26,3,24
0,15,2,12,1,3,4,7,5,30,3,23
2,27,0,12,1,22,3,27,5,25,4,22
1,27,0,28,2,8,4,28,5,14,3,20
0,2,2,11,1,11,3,27,4,27,5,13
0,5,2,20,1,24,4,8,3,7,5,19
0,8,2,4,1,11,4,11,3,4,5,15
2,21,1,30,0,19,5,26,4,10,3,18
